proyfinal/src/viki/013/experimentInOfficeAgust.take6.output/cdbf2451-4e8d-48cf-b975-b637a37c7305.als.dat
{'cnf.clauses': '118081',
 'cnf.totvars': '69608',
 'conflict literals': '126',
 'conflicts': '45',
 'decisions': '14573',
 'memused.mb': '16.61',
 'outcome': 'UNSAT',
 'propagations': '54788',
 'restarts': '1',
 'solver.msecs': 31,
 'task.msecs': 129}
