proyfinal/src/viki/013/experimentInOfficeAgust.take6.output/cdbf2451-4e8d-48cf-b975-b637a37c7305.als.out
Reading from standard input... Use '--help' for help.
============================[ Problem Statistics ]=============================
|                                                                             |
|  Number of variables:         69608                                         |
|  Number of clauses:          118081                                         |
|  Parse time:                   0.02 s                                       |
|                                                                             |
============================[ Search Statistics ]==============================
| Conflicts |          ORIGINAL         |          LEARNT          | Progress |
|           |    Vars  Clauses Literals |    Limit  Clauses Lit/Cl |          |
===============================================================================
===============================================================================
restarts              : 1
conflicts             : 45             (1409 /sec)
decisions             : 14573          (0.00 % random) (456205 /sec)
propagations          : 54788          (1715126 /sec)
conflict literals     : 126            (1.56 % deleted)
Memory used           : 16.61 MB
CPU time              : 0.031944 s

UNSATISFIABLE
